
Gurobi 11.0.3 (linux64) logging started Thu Nov 21 19:37:57 2024

Set parameter LogFile to value "/home/yihong/Coding/OR_SUC/SUC_results_bigM100000_thread4/case24_ieee_rts_theta0.1_epsilon0.025_gurobi_seed230000_num_gen100_N_WDR100_load_scaling_factor1_proposed_T8quadra_cost.txt"
Set parameter TimeLimit to value 3600
Gurobi Optimizer version 11.0.3 build v11.0.3rc0 (linux64 - "Ubuntu 20.04.6 LTS")

CPU model: AMD EPYC 7532 32-Core Processor, instruction set [SSE2|AVX|AVX2]
Thread count: 64 physical cores, 128 logical processors, using up to 4 threads

Optimize a model with 16982 rows, 10021 columns and 235066 nonzeros
Model fingerprint: 0x7bbe17d2
Model has 800 quadratic constraints
Variable types: 9221 continuous, 800 integer (800 binary)
Coefficient statistics:
  Matrix range     [3e-04, 2e+03]
  QMatrix range    [2e-03, 8e-03]
  QLMatrix range   [3e-01, 6e+01]
  Objective range  [1e+00, 1e+00]
  Bounds range     [1e+00, 1e+00]
  RHS range        [1e+00, 9e+03]
Presolve removed 13912 rows and 4498 columns
Presolve time: 0.07s
Presolved: 3070 rows, 5523 columns, 19772 nonzeros
Presolved model has 800 quadratic constraint(s)
Variable types: 4723 continuous, 800 integer (800 binary)

Root relaxation: objective 1.155105e+04, 2415 iterations, 0.04 seconds (0.05 work units)

    Nodes    |    Current Node    |     Objective Bounds      |     Work
 Expl Unexpl |  Obj  Depth IntInf | Incumbent    BestBd   Gap | It/Node Time

     0     0 11551.0548    0    8          - 11551.0548      -     -    0s
     0     0 88456.1365    0  244          - 88456.1365      -     -    0s
     0     0 180185.404    0  146          - 180185.404      -     -    0s
     0     0 180190.202    0  146          - 180190.202      -     -    0s
     0     0 180266.000    0  104          - 180266.000      -     -    0s
     0     0 180268.433    0  104          - 180268.433      -     -    0s
     0     0 180268.433    0  104          - 180268.433      -     -    0s
     0     0 180268.433    0  104          - 180268.433      -     -    0s
     0     2 180268.433    0  104          - 180268.433      -     -    1s
H  181   191                    180317.39425 180277.941  0.02%  14.3    1s
*  181   191              62    180317.39425 180277.941  0.02%  14.5    1s

Cutting planes:
  Gomory: 46
  Implied bound: 194
  MIR: 32
  Flow cover: 86

Explored 198 nodes (10492 simplex iterations) in 1.69 seconds (1.71 work units)
Thread count was 4 (of 128 available processors)

Solution count 2: 180317 180317 

Optimal solution found (tolerance 1.00e-03)
Warning: max constraint violation (8.7115e-08) exceeds tolerance
Best objective 1.803173942501e+05, best bound 1.802779411783e+05, gap 0.0219%
